40	100	100	100
66	35	100
39	14	100
47	21	100
6	78	100
78	60	100
37	67	100
61	83	100
35	52	100
92	23	100
84	98	100
86	42	100
62	98	100
87	13	100
67	37	100
77	91	100
40	72	100
54	6	100
28	28	100
25	43	100
27	42	100
50	52	100
20	60	100
45	62	100
1	19	100
42	37	100
10	20	100
74	49	100
6	93	100
69	80	100
2	9	100
73	94	100
83	54	100
38	60	100
21	34	100
60	95	100
32	94	100
40	52	100
49	95	100
37	55	100
95	51	100
